results/x-long/X-n157-k13.vrp_seed-23.out
16876	1661
