results/x-long/X-n157-k13.vrp_seed-23.vrp.sol
Route #1: 148 13 63 64 141 43 24 156 150 8 149 71
Route #2: 12 60 109 114 29 58 39 10 134 52 107 18
Route #3: 88 57 2 119 81 89 112 136 76 153 5 47
Route #4: 17 67 4 35 6 115 55 95 105 152 56 61
Route #5: 59 96 102 132 111 86 94 66 28 7 137 92
Route #6: 15 147 118 20 68 36 103 93 99 69 122 38
Route #7: 41 110 54 121 21 135 73 106 3 42 32 143
Route #8: 131 133 50 154 98 123 53 144 85 140 31 23
Route #9: 72 48 33 84 79 74 30 22 155 25 138 34
Route #10: 70 139 125 78 146 80 40 108 9 117 1 126
Route #11: 37 116 19 46 145 127 104 130 124 44 27 101
Route #12: 151 113 82 11 77 45 83 90 51 100 91 129
Route #13: 75 16 65 87 97 62 142 128 26 120 14 49
Cost 16876.000000